benchmarks/bfuzz0/1926793960431777618085126941159920653.smt2
(set-logic QF_FP)
(declare-const x0 (_ FloatingPoint 11 53))
(declare-const x1 (_ FloatingPoint 11 53))
(declare-const x2 (_ FloatingPoint 11 53))
(declare-const x3 (_ FloatingPoint 11 53))
(declare-const x4 (_ FloatingPoint 11 53))
(declare-const x5 (_ FloatingPoint 11 53))
(declare-const x6 (_ FloatingPoint 11 53))
(declare-const x7 (_ FloatingPoint 11 53))
(declare-const x8 (_ FloatingPoint 11 53))
(declare-const x9 (_ FloatingPoint 11 53))
(declare-const x10 (_ FloatingPoint 11 53))
(declare-const x11 (_ FloatingPoint 11 53))
(declare-const x12 (_ FloatingPoint 11 53))
(declare-const x13 (_ FloatingPoint 11 53))
(declare-const x14 (_ FloatingPoint 11 53))
(declare-const x15 (_ FloatingPoint 11 53))
(declare-const x16 (_ FloatingPoint 11 53))
(assert (fp.gt (fp.div RNE (fp.div RNE x1 x13) (fp.neg x6)) (fp.neg (fp.neg x6))))
(assert (fp.geq (fp.div RNE (fp.mul RNE x8 x9) (fp.div RNE x16 x14)) (fp.neg (fp.sub RNE x14 x12))))
(assert (fp.geq (fp.mul RNE (fp.neg x14) (fp.div RNE x12 x9)) (fp.mul RNE (fp.add RNE x3 x14) (fp.add RNE x13 x10))))
(check-sat)
