db/data/1926793960431777618085126941159920653.z3.out
-------------------
2500.113735647
